p cnf 636 2321
1 2 3 4 0
-1 -2 0
-1 -3 0
-1 -4 0
-2 -3 0
-2 -4 0
-3 -4 0
5 -6 -7 0
6 -5 -7 0
-5 -6 7 0
6 5 7 0
-1 -7 0
6 -5 -8 0
5 -6 -8 0
8 -6 -5 0
8 6 5 0
-2 8 0
-6 9 0
-5 9 0
6 5 -9 0
6 -9 -10 0
-6 9 -10 0
-6 -9 10 0
6 9 10 0
-3 10 0
5 11 0
6 11 0
-5 -6 -11 0
-6 11 -12 0
6 -11 -12 0
12 -11 -6 0
6 11 12 0
-4 -12 0
13 -14 -15 0
14 -13 -15 0
-13 -14 15 0
14 13 15 0
-1 -15 0
14 -16 -17 0
16 -14 -17 0
17 -14 -16 0
17 14 16 0
-2 17 0
-13 18 0
-16 18 0
-19 18 0
-20 18 0
-21 18 0
-22 18 0
-23 18 0
-24 18 0
-25 18 0
26 0
14 -18 -27 0
-14 18 -27 0
-14 -18 27 0
14 18 27 0
-3 27 0
13 28 0
16 28 0
19 28 0
20 28 0
21 28 0
22 28 0
23 28 0
24 28 0
25 28 0
-29 0
-14 28 -30 0
14 -28 -30 0
30 -28 -14 0
14 28 30 0
-4 -30 0
16 -31 -32 0
31 -16 -32 0
-16 -31 32 0
16 31 32 0
-1 -32 0
31 -19 -33 0
19 -31 -33 0
33 -31 -19 0
33 31 19 0
-2 33 0
-16 34 0
-19 34 0
-20 34 0
-21 34 0
-22 34 0
-23 34 0
-24 34 0
-25 34 0
35 0
31 -34 -36 0
-31 34 -36 0
-31 -34 36 0
31 34 36 0
-3 36 0
16 37 0
19 37 0
20 37 0
21 37 0
22 37 0
23 37 0
24 37 0
25 37 0
-38 0
-31 37 -39 0
31 -37 -39 0
39 -37 -31 0
31 37 39 0
-4 -39 0
19 -40 -41 0
40 -19 -41 0
-19 -40 41 0
19 40 41 0
-1 -41 0
40 -20 -42 0
20 -40 -42 0
42 -40 -20 0
42 40 20 0
-2 42 0
-19 43 0
-20 43 0
-21 43 0
-22 43 0
-23 43 0
-24 43 0
-25 43 0
44 0
40 -43 -45 0
-40 43 -45 0
-40 -43 45 0
40 43 45 0
-3 45 0
19 46 0
20 46 0
21 46 0
22 46 0
23 46 0
24 46 0
25 46 0
-47 0
-40 46 -48 0
40 -46 -48 0
48 -46 -40 0
40 46 48 0
-4 -48 0
20 -49 -50 0
49 -20 -50 0
-20 -49 50 0
20 49 50 0
-1 -50 0
49 -21 -51 0
21 -49 -51 0
51 -49 -21 0
51 49 21 0
-2 51 0
-20 52 0
-21 52 0
-22 52 0
-23 52 0
-24 52 0
-25 52 0
20 21 22 23 24 25 -52 0
49 -52 -53 0
-49 52 -53 0
-49 -52 53 0
49 52 53 0
-3 53 0
20 54 0
21 54 0
22 54 0
23 54 0
24 54 0
25 54 0
-55 0
-49 54 -56 0
49 -54 -56 0
56 -54 -49 0
49 54 56 0
-4 -56 0
21 -57 -58 0
57 -21 -58 0
-21 -57 58 0
21 57 58 0
-1 -58 0
57 -22 -59 0
22 -57 -59 0
59 -57 -22 0
59 57 22 0
-2 59 0
-21 60 0
-22 60 0
-23 60 0
-24 60 0
-25 60 0
21 22 23 24 25 -60 0
57 -60 -61 0
-57 60 -61 0
-57 -60 61 0
57 60 61 0
-3 61 0
21 62 0
22 62 0
23 62 0
24 62 0
25 62 0
-63 0
-57 62 -64 0
57 -62 -64 0
64 -62 -57 0
57 62 64 0
-4 -64 0
22 -65 -66 0
65 -22 -66 0
-22 -65 66 0
22 65 66 0
-1 -66 0
65 -23 -67 0
23 -65 -67 0
67 -65 -23 0
67 65 23 0
-2 67 0
65 -60 -68 0
60 -65 -68 0
-60 -65 68 0
65 60 68 0
-3 68 0
62 -65 -69 0
65 -62 -69 0
69 -62 -65 0
65 62 69 0
-4 -69 0
23 -70 -71 0
70 -23 -71 0
-23 -70 71 0
23 70 71 0
-1 -71 0
70 -24 -72 0
24 -70 -72 0
72 -70 -24 0
72 70 24 0
-2 72 0
70 -60 -73 0
60 -70 -73 0
-60 -70 73 0
70 60 73 0
-3 73 0
62 -70 -74 0
70 -62 -74 0
74 -62 -70 0
70 62 74 0
-4 -74 0
24 -75 -76 0
75 -24 -76 0
-24 -75 76 0
24 75 76 0
-1 -76 0
75 -25 -77 0
25 -75 -77 0
77 -75 -25 0
77 75 25 0
-2 77 0
75 -60 -78 0
60 -75 -78 0
-60 -75 78 0
75 60 78 0
-3 78 0
62 -75 -79 0
75 -62 -79 0
79 -62 -75 0
75 62 79 0
-4 -79 0
25 -80 -81 0
80 -25 -81 0
-25 -80 81 0
25 80 81 0
-1 -81 0
-21 80 -82 0
21 -80 -82 0
82 -80 -21 0
82 80 21 0
-2 82 0
-25 83 0
-57 83 0
25 57 -83 0
80 -83 -84 0
-80 83 -84 0
-80 -83 84 0
80 83 84 0
-3 84 0
25 85 0
57 85 0
-25 -57 -85 0
-80 85 -86 0
80 -85 -86 0
86 -85 -80 0
80 85 86 0
-4 -86 0
87 -88 -89 0
88 -87 -89 0
-87 -88 89 0
88 87 89 0
-1 -89 0
88 -90 -91 0
90 -88 -91 0
91 -88 -90 0
91 88 90 0
-2 91 0
-87 92 0
-90 92 0
-93 92 0
-94 92 0
-95 92 0
-96 92 0
-97 92 0
-98 92 0
-99 92 0
-100 92 0
101 0
88 -92 -102 0
-88 92 -102 0
-88 -92 102 0
88 92 102 0
-3 102 0
87 103 0
90 103 0
93 103 0
94 103 0
95 103 0
96 103 0
97 103 0
98 103 0
99 103 0
100 103 0
-104 0
-88 103 -105 0
88 -103 -105 0
105 -103 -88 0
88 103 105 0
-4 -105 0
90 -106 -107 0
106 -90 -107 0
-90 -106 107 0
90 106 107 0
-1 -107 0
106 -93 -108 0
93 -106 -108 0
108 -106 -93 0
108 106 93 0
-2 108 0
-90 109 0
-93 109 0
-94 109 0
-95 109 0
-96 109 0
-97 109 0
-98 109 0
-99 109 0
-100 109 0
110 0
106 -109 -111 0
-106 109 -111 0
-106 -109 111 0
106 109 111 0
-3 111 0
90 112 0
93 112 0
94 112 0
95 112 0
96 112 0
97 112 0
98 112 0
99 112 0
100 112 0
-113 0
-106 112 -114 0
106 -112 -114 0
114 -112 -106 0
106 112 114 0
-4 -114 0
93 -115 -116 0
115 -93 -116 0
-93 -115 116 0
93 115 116 0
-1 -116 0
115 -94 -117 0
94 -115 -117 0
117 -115 -94 0
117 115 94 0
-2 117 0
-93 118 0
-94 118 0
-95 118 0
-96 118 0
-97 118 0
-98 118 0
-99 118 0
-100 118 0
119 0
115 -118 -120 0
-115 118 -120 0
-115 -118 120 0
115 118 120 0
-3 120 0
93 121 0
94 121 0
95 121 0
96 121 0
97 121 0
98 121 0
99 121 0
100 121 0
-122 0
-115 121 -123 0
115 -121 -123 0
123 -121 -115 0
115 121 123 0
-4 -123 0
94 -124 -125 0
124 -94 -125 0
-94 -124 125 0
94 124 125 0
-1 -125 0
124 -95 -126 0
95 -124 -126 0
126 -124 -95 0
126 124 95 0
-2 126 0
-94 127 0
-95 127 0
-96 127 0
-97 127 0
-98 127 0
-99 127 0
-100 127 0
128 0
124 -127 -129 0
-124 127 -129 0
-124 -127 129 0
124 127 129 0
-3 129 0
94 130 0
95 130 0
96 130 0
97 130 0
98 130 0
99 130 0
100 130 0
-131 0
-124 130 -132 0
124 -130 -132 0
132 -130 -124 0
124 130 132 0
-4 -132 0
95 -133 -134 0
133 -95 -134 0
-95 -133 134 0
95 133 134 0
-1 -134 0
133 -96 -135 0
96 -133 -135 0
135 -133 -96 0
135 133 96 0
-2 135 0
-95 136 0
-96 136 0
-97 136 0
-98 136 0
-99 136 0
-100 136 0
137 0
133 -136 -138 0
-133 136 -138 0
-133 -136 138 0
133 136 138 0
-3 138 0
95 139 0
96 139 0
97 139 0
98 139 0
99 139 0
100 139 0
-140 0
-133 139 -141 0
133 -139 -141 0
141 -139 -133 0
133 139 141 0
-4 -141 0
96 -142 -143 0
142 -96 -143 0
-96 -142 143 0
96 142 143 0
-1 -143 0
142 -97 -144 0
97 -142 -144 0
144 -142 -97 0
144 142 97 0
-2 144 0
-96 145 0
-97 145 0
-98 145 0
-99 145 0
-100 145 0
96 97 98 99 100 -145 0
142 -145 -146 0
-142 145 -146 0
-142 -145 146 0
142 145 146 0
-3 146 0
96 147 0
97 147 0
98 147 0
99 147 0
100 147 0
-148 0
-142 147 -149 0
142 -147 -149 0
149 -147 -142 0
142 147 149 0
-4 -149 0
97 -150 -151 0
150 -97 -151 0
-97 -150 151 0
97 150 151 0
-1 -151 0
150 -98 -152 0
98 -150 -152 0
152 -150 -98 0
152 150 98 0
-2 152 0
-97 153 0
-98 153 0
-99 153 0
-100 153 0
97 98 99 100 -153 0
150 -153 -154 0
-150 153 -154 0
-150 -153 154 0
150 153 154 0
-3 154 0
97 155 0
98 155 0
99 155 0
100 155 0
-156 0
-150 155 -157 0
150 -155 -157 0
157 -155 -150 0
150 155 157 0
-4 -157 0
98 -158 -159 0
158 -98 -159 0
-98 -158 159 0
98 158 159 0
-1 -159 0
158 -99 -160 0
99 -158 -160 0
160 -158 -99 0
160 158 99 0
-2 160 0
158 -153 -161 0
153 -158 -161 0
-153 -158 161 0
158 153 161 0
-3 161 0
155 -158 -162 0
158 -155 -162 0
162 -155 -158 0
158 155 162 0
-4 -162 0
99 -163 -164 0
163 -99 -164 0
-99 -163 164 0
99 163 164 0
-1 -164 0
163 -100 -165 0
100 -163 -165 0
165 -163 -100 0
165 163 100 0
-2 165 0
163 -153 -166 0
153 -163 -166 0
-153 -163 166 0
163 153 166 0
-3 166 0
155 -163 -167 0
163 -155 -167 0
167 -155 -163 0
163 155 167 0
-4 -167 0
100 -168 -169 0
168 -100 -169 0
-100 -168 169 0
100 168 169 0
-1 -169 0
-97 168 -170 0
97 -168 -170 0
170 -168 -97 0
170 168 97 0
-2 170 0
-100 171 0
-150 171 0
100 150 -171 0
168 -171 -172 0
-168 171 -172 0
-168 -171 172 0
168 171 172 0
-3 172 0
100 173 0
150 173 0
-100 -150 -173 0
-168 173 -174 0
168 -173 -174 0
174 -173 -168 0
168 173 174 0
-4 -174 0
175 -176 -177 0
176 -175 -177 0
-175 -176 177 0
176 175 177 0
-1 -177 0
176 -178 -179 0
178 -176 -179 0
179 -176 -178 0
179 176 178 0
-2 179 0
-175 180 0
-178 180 0
-181 180 0
-182 180 0
-183 180 0
-184 180 0
-185 180 0
-186 180 0
-187 180 0
-188 180 0
-189 180 0
190 0
176 -180 -191 0
-176 180 -191 0
-176 -180 191 0
176 180 191 0
-3 191 0
175 192 0
178 192 0
181 192 0
182 192 0
183 192 0
184 192 0
185 192 0
186 192 0
187 192 0
188 192 0
189 192 0
-193 0
-176 192 -194 0
176 -192 -194 0
194 -192 -176 0
176 192 194 0
-4 -194 0
178 -195 -196 0
195 -178 -196 0
-178 -195 196 0
178 195 196 0
-1 -196 0
195 -181 -197 0
181 -195 -197 0
197 -195 -181 0
197 195 181 0
-2 197 0
-178 198 0
-181 198 0
-182 198 0
-183 198 0
-184 198 0
-185 198 0
-186 198 0
-187 198 0
-188 198 0
-189 198 0
199 0
195 -198 -200 0
-195 198 -200 0
-195 -198 200 0
195 198 200 0
-3 200 0
178 201 0
181 201 0
182 201 0
183 201 0
184 201 0
185 201 0
186 201 0
187 201 0
188 201 0
189 201 0
-202 0
-195 201 -203 0
195 -201 -203 0
203 -201 -195 0
195 201 203 0
-4 -203 0
181 -204 -205 0
204 -181 -205 0
-181 -204 205 0
181 204 205 0
-1 -205 0
204 -182 -206 0
182 -204 -206 0
206 -204 -182 0
206 204 182 0
-2 206 0
-181 207 0
-182 207 0
-183 207 0
-184 207 0
-185 207 0
-186 207 0
-187 207 0
-188 207 0
-189 207 0
208 0
204 -207 -209 0
-204 207 -209 0
-204 -207 209 0
204 207 209 0
-3 209 0
181 210 0
182 210 0
183 210 0
184 210 0
185 210 0
186 210 0
187 210 0
188 210 0
189 210 0
-211 0
-204 210 -212 0
204 -210 -212 0
212 -210 -204 0
204 210 212 0
-4 -212 0
182 -213 -214 0
213 -182 -214 0
-182 -213 214 0
182 213 214 0
-1 -214 0
213 -183 -215 0
183 -213 -215 0
215 -213 -183 0
215 213 183 0
-2 215 0
-182 216 0
-183 216 0
-184 216 0
-185 216 0
-186 216 0
-187 216 0
-188 216 0
-189 216 0
217 0
213 -216 -218 0
-213 216 -218 0
-213 -216 218 0
213 216 218 0
-3 218 0
182 219 0
183 219 0
184 219 0
185 219 0
186 219 0
187 219 0
188 219 0
189 219 0
-220 0
-213 219 -221 0
213 -219 -221 0
221 -219 -213 0
213 219 221 0
-4 -221 0
183 -222 -223 0
222 -183 -223 0
-183 -222 223 0
183 222 223 0
-1 -223 0
222 -184 -224 0
184 -222 -224 0
224 -222 -184 0
224 222 184 0
-2 224 0
-183 225 0
-184 225 0
-185 225 0
-186 225 0
-187 225 0
-188 225 0
-189 225 0
226 0
222 -225 -227 0
-222 225 -227 0
-222 -225 227 0
222 225 227 0
-3 227 0
183 228 0
184 228 0
185 228 0
186 228 0
187 228 0
188 228 0
189 228 0
-229 0
-222 228 -230 0
222 -228 -230 0
230 -228 -222 0
222 228 230 0
-4 -230 0
184 -231 -232 0
231 -184 -232 0
-184 -231 232 0
184 231 232 0
-1 -232 0
231 -185 -233 0
185 -231 -233 0
233 -231 -185 0
233 231 185 0
-2 233 0
-184 234 0
-185 234 0
-186 234 0
-187 234 0
-188 234 0
-189 234 0
235 0
231 -234 -236 0
-231 234 -236 0
-231 -234 236 0
231 234 236 0
-3 236 0
184 237 0
185 237 0
186 237 0
187 237 0
188 237 0
189 237 0
-238 0
-231 237 -239 0
231 -237 -239 0
239 -237 -231 0
231 237 239 0
-4 -239 0
185 -240 -241 0
240 -185 -241 0
-185 -240 241 0
185 240 241 0
-1 -241 0
240 -186 -242 0
186 -240 -242 0
242 -240 -186 0
242 240 186 0
-2 242 0
240 -234 -243 0
234 -240 -243 0
-234 -240 243 0
240 234 243 0
-3 243 0
237 -240 -244 0
240 -237 -244 0
244 -237 -240 0
240 237 244 0
-4 -244 0
186 -245 -246 0
245 -186 -246 0
-186 -245 246 0
186 245 246 0
-1 -246 0
245 -187 -247 0
187 -245 -247 0
247 -245 -187 0
247 245 187 0
-2 247 0
245 -234 -248 0
234 -245 -248 0
-234 -245 248 0
245 234 248 0
-3 248 0
237 -245 -249 0
245 -237 -249 0
249 -237 -245 0
245 237 249 0
-4 -249 0
187 -250 -251 0
250 -187 -251 0
-187 -250 251 0
187 250 251 0
-1 -251 0
250 -188 -252 0
188 -250 -252 0
252 -250 -188 0
252 250 188 0
-2 252 0
250 -234 -253 0
234 -250 -253 0
-234 -250 253 0
250 234 253 0
-3 253 0
237 -250 -254 0
250 -237 -254 0
254 -237 -250 0
250 237 254 0
-4 -254 0
188 -255 -256 0
255 -188 -256 0
-188 -255 256 0
188 255 256 0
-1 -256 0
255 -189 -257 0
189 -255 -257 0
257 -255 -189 0
257 255 189 0
-2 257 0
255 -234 -258 0
234 -255 -258 0
-234 -255 258 0
255 234 258 0
-3 258 0
237 -255 -259 0
255 -237 -259 0
259 -237 -255 0
255 237 259 0
-4 -259 0
189 -260 -261 0
260 -189 -261 0
-189 -260 261 0
189 260 261 0
-1 -261 0
-184 260 -262 0
184 -260 -262 0
262 -260 -184 0
262 260 184 0
-2 262 0
-189 263 0
-231 263 0
189 231 -263 0
260 -263 -264 0
-260 263 -264 0
-260 -263 264 0
260 263 264 0
-3 264 0
189 265 0
231 265 0
-189 -231 -265 0
-260 265 -266 0
260 -265 -266 0
266 -265 -260 0
260 265 266 0
-4 -266 0
267 -268 -269 0
268 -267 -269 0
-267 -268 269 0
268 267 269 0
-1 -269 0
268 -270 -271 0
270 -268 -271 0
271 -268 -270 0
271 268 270 0
-2 271 0
-19 272 0
-20 272 0
-21 272 0
-22 272 0
-23 272 0
-24 272 0
-25 272 0
-267 272 0
-270 272 0
273 0
268 -272 -274 0
-268 272 -274 0
-268 -272 274 0
268 272 274 0
-3 274 0
19 275 0
20 275 0
21 275 0
22 275 0
23 275 0
24 275 0
25 275 0
267 275 0
270 275 0
-276 0
-268 275 -277 0
268 -275 -277 0
277 -275 -268 0
268 275 277 0
-4 -277 0
270 -278 -279 0
278 -270 -279 0
-270 -278 279 0
270 278 279 0
-1 -279 0
-19 278 -280 0
19 -278 -280 0
280 -278 -19 0
280 278 19 0
-2 280 0
-19 281 0
-20 281 0
-21 281 0
-22 281 0
-23 281 0
-24 281 0
-25 281 0
-270 281 0
282 0
278 -281 -283 0
-278 281 -283 0
-278 -281 283 0
278 281 283 0
-3 283 0
19 284 0
20 284 0
21 284 0
22 284 0
23 284 0
24 284 0
25 284 0
270 284 0
-285 0
-278 284 -286 0
278 -284 -286 0
286 -284 -278 0
278 284 286 0
-4 -286 0
287 -288 -289 0
288 -287 -289 0
-287 -288 289 0
288 287 289 0
-1 -289 0
288 -290 -291 0
290 -288 -291 0
291 -288 -290 0
291 288 290 0
-2 291 0
-287 292 0
-290 292 0
-293 292 0
-294 292 0
-295 292 0
-296 292 0
297 0
288 -292 -298 0
-288 292 -298 0
-288 -292 298 0
288 292 298 0
-3 298 0
287 299 0
290 299 0
293 299 0
294 299 0
295 299 0
296 299 0
-300 0
-288 299 -301 0
288 -299 -301 0
301 -299 -288 0
288 299 301 0
-4 -301 0
290 -302 -303 0
302 -290 -303 0
-290 -302 303 0
290 302 303 0
-1 -303 0
302 -293 -304 0
293 -302 -304 0
304 -302 -293 0
304 302 293 0
-2 304 0
-290 305 0
-293 305 0
-294 305 0
-295 305 0
-296 305 0
290 293 294 295 296 -305 0
302 -305 -306 0
-302 305 -306 0
-302 -305 306 0
302 305 306 0
-3 306 0
290 307 0
293 307 0
294 307 0
295 307 0
296 307 0
-308 0
-302 307 -309 0
302 -307 -309 0
309 -307 -302 0
302 307 309 0
-4 -309 0
293 -310 -311 0
310 -293 -311 0
-293 -310 311 0
293 310 311 0
-1 -311 0
310 -294 -312 0
294 -310 -312 0
312 -310 -294 0
312 310 294 0
-2 312 0
310 -305 -313 0
305 -310 -313 0
-305 -310 313 0
310 305 313 0
-3 313 0
307 -310 -314 0
310 -307 -314 0
314 -307 -310 0
310 307 314 0
-4 -314 0
294 -315 -316 0
315 -294 -316 0
-294 -315 316 0
294 315 316 0
-1 -316 0
315 -295 -317 0
295 -315 -317 0
317 -315 -295 0
317 315 295 0
-2 317 0
315 -305 -318 0
305 -315 -318 0
-305 -315 318 0
315 305 318 0
-3 318 0
307 -315 -319 0
315 -307 -319 0
319 -307 -315 0
315 307 319 0
-4 -319 0
295 -320 -321 0
320 -295 -321 0
-295 -320 321 0
295 320 321 0
-1 -321 0
320 -296 -322 0
296 -320 -322 0
322 -320 -296 0
322 320 296 0
-2 322 0
320 -305 -323 0
305 -320 -323 0
-305 -320 323 0
320 305 323 0
-3 323 0
307 -320 -324 0
320 -307 -324 0
324 -307 -320 0
320 307 324 0
-4 -324 0
296 -325 -326 0
325 -296 -326 0
-296 -325 326 0
296 325 326 0
-1 -326 0
-290 325 -327 0
290 -325 -327 0
327 -325 -290 0
327 325 290 0
-2 327 0
-296 328 0
-302 328 0
296 302 -328 0
325 -328 -329 0
-325 328 -329 0
-325 -328 329 0
325 328 329 0
-3 329 0
296 330 0
302 330 0
-296 -302 -330 0
-325 330 -331 0
325 -330 -331 0
331 -330 -325 0
325 330 331 0
-4 -331 0
332 -333 -334 0
333 -332 -334 0
-332 -333 334 0
333 332 334 0
-1 -334 0
333 -335 -336 0
335 -333 -336 0
336 -333 -335 0
336 333 335 0
-2 336 0
-332 337 0
-335 337 0
-338 337 0
-339 337 0
-340 337 0
-341 337 0
-342 337 0
-343 337 0
-344 337 0
-345 337 0
-346 337 0
-347 337 0
348 0
333 -337 -349 0
-333 337 -349 0
-333 -337 349 0
333 337 349 0
-3 349 0
332 350 0
335 350 0
338 350 0
339 350 0
340 350 0
341 350 0
342 350 0
343 350 0
344 350 0
345 350 0
346 350 0
347 350 0
-351 0
-333 350 -352 0
333 -350 -352 0
352 -350 -333 0
333 350 352 0
-4 -352 0
335 -353 -354 0
353 -335 -354 0
-335 -353 354 0
335 353 354 0
-1 -354 0
353 -338 -355 0
338 -353 -355 0
355 -353 -338 0
355 353 338 0
-2 355 0
-335 356 0
-338 356 0
-339 356 0
-340 356 0
-341 356 0
-342 356 0
-343 356 0
-344 356 0
-345 356 0
-346 356 0
-347 356 0
357 0
353 -356 -358 0
-353 356 -358 0
-353 -356 358 0
353 356 358 0
-3 358 0
335 359 0
338 359 0
339 359 0
340 359 0
341 359 0
342 359 0
343 359 0
344 359 0
345 359 0
346 359 0
347 359 0
-360 0
-353 359 -361 0
353 -359 -361 0
361 -359 -353 0
353 359 361 0
-4 -361 0
338 -362 -363 0
362 -338 -363 0
-338 -362 363 0
338 362 363 0
-1 -363 0
362 -339 -364 0
339 -362 -364 0
364 -362 -339 0
364 362 339 0
-2 364 0
-338 365 0
-339 365 0
-340 365 0
-341 365 0
-342 365 0
-343 365 0
-344 365 0
-345 365 0
-346 365 0
-347 365 0
366 0
362 -365 -367 0
-362 365 -367 0
-362 -365 367 0
362 365 367 0
-3 367 0
338 368 0
339 368 0
340 368 0
341 368 0
342 368 0
343 368 0
344 368 0
345 368 0
346 368 0
347 368 0
-369 0
-362 368 -370 0
362 -368 -370 0
370 -368 -362 0
362 368 370 0
-4 -370 0
339 -371 -372 0
371 -339 -372 0
-339 -371 372 0
339 371 372 0
-1 -372 0
371 -340 -373 0
340 -371 -373 0
373 -371 -340 0
373 371 340 0
-2 373 0
-339 374 0
-340 374 0
-341 374 0
-342 374 0
-343 374 0
-344 374 0
-345 374 0
-346 374 0
-347 374 0
375 0
371 -374 -376 0
-371 374 -376 0
-371 -374 376 0
371 374 376 0
-3 376 0
339 377 0
340 377 0
341 377 0
342 377 0
343 377 0
344 377 0
345 377 0
346 377 0
347 377 0
-378 0
-371 377 -379 0
371 -377 -379 0
379 -377 -371 0
371 377 379 0
-4 -379 0
340 -380 -381 0
380 -340 -381 0
-340 -380 381 0
340 380 381 0
-1 -381 0
380 -341 -382 0
341 -380 -382 0
382 -380 -341 0
382 380 341 0
-2 382 0
-340 383 0
-341 383 0
-342 383 0
-343 383 0
-344 383 0
-345 383 0
-346 383 0
-347 383 0
384 0
380 -383 -385 0
-380 383 -385 0
-380 -383 385 0
380 383 385 0
-3 385 0
340 386 0
341 386 0
342 386 0
343 386 0
344 386 0
345 386 0
346 386 0
347 386 0
-387 0
-380 386 -388 0
380 -386 -388 0
388 -386 -380 0
380 386 388 0
-4 -388 0
341 -389 -390 0
389 -341 -390 0
-341 -389 390 0
341 389 390 0
-1 -390 0
389 -342 -391 0
342 -389 -391 0
391 -389 -342 0
391 389 342 0
-2 391 0
-341 392 0
-342 392 0
-343 392 0
-344 392 0
-345 392 0
-346 392 0
-347 392 0
393 0
389 -392 -394 0
-389 392 -394 0
-389 -392 394 0
389 392 394 0
-3 394 0
341 395 0
342 395 0
343 395 0
344 395 0
345 395 0
346 395 0
347 395 0
-396 0
-389 395 -397 0
389 -395 -397 0
397 -395 -389 0
389 395 397 0
-4 -397 0
342 -398 -399 0
398 -342 -399 0
-342 -398 399 0
342 398 399 0
-1 -399 0
398 -343 -400 0
343 -398 -400 0
400 -398 -343 0
400 398 343 0
-2 400 0
-342 401 0
-343 401 0
-344 401 0
-345 401 0
-346 401 0
-347 401 0
402 0
398 -401 -403 0
-398 401 -403 0
-398 -401 403 0
398 401 403 0
-3 403 0
342 404 0
343 404 0
344 404 0
345 404 0
346 404 0
347 404 0
-405 0
-398 404 -406 0
398 -404 -406 0
406 -404 -398 0
398 404 406 0
-4 -406 0
343 -407 -408 0
407 -343 -408 0
-343 -407 408 0
343 407 408 0
-1 -408 0
407 -344 -409 0
344 -407 -409 0
409 -407 -344 0
409 407 344 0
-2 409 0
407 -401 -410 0
401 -407 -410 0
-401 -407 410 0
407 401 410 0
-3 410 0
404 -407 -411 0
407 -404 -411 0
411 -404 -407 0
407 404 411 0
-4 -411 0
344 -412 -413 0
412 -344 -413 0
-344 -412 413 0
344 412 413 0
-1 -413 0
412 -345 -414 0
345 -412 -414 0
414 -412 -345 0
414 412 345 0
-2 414 0
412 -401 -415 0
401 -412 -415 0
-401 -412 415 0
412 401 415 0
-3 415 0
404 -412 -416 0
412 -404 -416 0
416 -404 -412 0
412 404 416 0
-4 -416 0
345 -417 -418 0
417 -345 -418 0
-345 -417 418 0
345 417 418 0
-1 -418 0
417 -346 -419 0
346 -417 -419 0
419 -417 -346 0
419 417 346 0
-2 419 0
417 -401 -420 0
401 -417 -420 0
-401 -417 420 0
417 401 420 0
-3 420 0
404 -417 -421 0
417 -404 -421 0
421 -404 -417 0
417 404 421 0
-4 -421 0
346 -422 -423 0
422 -346 -423 0
-346 -422 423 0
346 422 423 0
-1 -423 0
422 -347 -424 0
347 -422 -424 0
424 -422 -347 0
424 422 347 0
-2 424 0
422 -401 -425 0
401 -422 -425 0
-401 -422 425 0
422 401 425 0
-3 425 0
404 -422 -426 0
422 -404 -426 0
426 -404 -422 0
422 404 426 0
-4 -426 0
347 -427 -428 0
427 -347 -428 0
-347 -427 428 0
347 427 428 0
-1 -428 0
-342 427 -429 0
342 -427 -429 0
429 -427 -342 0
429 427 342 0
-2 429 0
-347 430 0
-398 430 0
347 398 -430 0
427 -430 -431 0
-427 430 -431 0
-427 -430 431 0
427 430 431 0
-3 431 0
347 432 0
398 432 0
-347 -398 -432 0
-427 432 -433 0
427 -432 -433 0
433 -432 -427 0
427 432 433 0
-4 -433 0
434 -435 -436 0
435 -434 -436 0
-434 -435 436 0
435 434 436 0
-1 -436 0
435 -437 -438 0
437 -435 -438 0
438 -435 -437 0
438 435 437 0
-2 438 0
-434 439 0
-437 439 0
-440 439 0
-441 439 0
-442 439 0
-443 439 0
-444 439 0
445 0
435 -439 -446 0
-435 439 -446 0
-435 -439 446 0
435 439 446 0
-3 446 0
434 447 0
437 447 0
440 447 0
441 447 0
442 447 0
443 447 0
444 447 0
-448 0
-435 447 -449 0
435 -447 -449 0
449 -447 -435 0
435 447 449 0
-4 -449 0
437 -450 -451 0
450 -437 -451 0
-437 -450 451 0
437 450 451 0
-1 -451 0
450 -440 -452 0
440 -450 -452 0
452 -450 -440 0
452 450 440 0
-2 452 0
-437 453 0
-440 453 0
-441 453 0
-442 453 0
-443 453 0
-444 453 0
454 0
450 -453 -455 0
-450 453 -455 0
-450 -453 455 0
450 453 455 0
-3 455 0
437 456 0
440 456 0
441 456 0
442 456 0
443 456 0
444 456 0
-457 0
-450 456 -458 0
450 -456 -458 0
458 -456 -450 0
450 456 458 0
-4 -458 0
440 -459 -460 0
459 -440 -460 0
-440 -459 460 0
440 459 460 0
-1 -460 0
459 -441 -461 0
441 -459 -461 0
461 -459 -441 0
461 459 441 0
-2 461 0
-440 462 0
-441 462 0
-442 462 0
-443 462 0
-444 462 0
440 441 442 443 444 -462 0
459 -462 -463 0
-459 462 -463 0
-459 -462 463 0
459 462 463 0
-3 463 0
440 464 0
441 464 0
442 464 0
443 464 0
444 464 0
-465 0
-459 464 -466 0
459 -464 -466 0
466 -464 -459 0
459 464 466 0
-4 -466 0
441 -467 -468 0
467 -441 -468 0
-441 -467 468 0
441 467 468 0
-1 -468 0
467 -442 -469 0
442 -467 -469 0
469 -467 -442 0
469 467 442 0
-2 469 0
-441 470 0
-442 470 0
-443 470 0
-444 470 0
441 442 443 444 -470 0
467 -470 -471 0
-467 470 -471 0
-467 -470 471 0
467 470 471 0
-3 471 0
441 472 0
442 472 0
443 472 0
444 472 0
-473 0
-467 472 -474 0
467 -472 -474 0
474 -472 -467 0
467 472 474 0
-4 -474 0
442 -475 -476 0
475 -442 -476 0
-442 -475 476 0
442 475 476 0
-1 -476 0
475 -443 -477 0
443 -475 -477 0
477 -475 -443 0
477 475 443 0
-2 477 0
-442 478 0
-443 478 0
-444 478 0
442 443 444 -478 0
475 -478 -479 0
-475 478 -479 0
-475 -478 479 0
475 478 479 0
-3 479 0
442 480 0
443 480 0
444 480 0
-442 -443 -444 -480 0
-475 480 -481 0
475 -480 -481 0
481 -480 -475 0
475 480 481 0
-4 -481 0
443 -482 -483 0
482 -443 -483 0
-443 -482 483 0
443 482 483 0
-1 -483 0
482 -444 -484 0
444 -482 -484 0
484 -482 -444 0
484 482 444 0
-2 484 0
-443 485 0
-444 485 0
443 444 -485 0
482 -485 -486 0
-482 485 -486 0
-482 -485 486 0
482 485 486 0
-3 486 0
443 487 0
444 487 0
-443 -444 -487 0
-482 487 -488 0
482 -487 -488 0
488 -487 -482 0
482 487 488 0
-4 -488 0
444 -489 -490 0
489 -444 -490 0
-444 -489 490 0
444 489 490 0
-1 -490 0
-443 489 -491 0
443 -489 -491 0
491 -489 -443 0
491 489 443 0
-2 491 0
-444 492 0
-482 492 0
444 482 -492 0
489 -492 -493 0
-489 492 -493 0
-489 -492 493 0
489 492 493 0
-3 493 0
444 494 0
482 494 0
-444 -482 -494 0
-489 494 -495 0
489 -494 -495 0
495 -494 -489 0
489 494 495 0
-4 -495 0
496 -497 -498 0
497 -496 -498 0
-496 -497 498 0
497 496 498 0
-1 -498 0
497 -499 -500 0
499 -497 -500 0
500 -497 -499 0
500 497 499 0
-2 500 0
-496 501 0
-499 501 0
-502 501 0
-503 501 0
-504 501 0
-505 501 0
-506 501 0
-507 501 0
-508 501 0
-509 501 0
-510 501 0
-511 501 0
512 0
497 -501 -513 0
-497 501 -513 0
-497 -501 513 0
497 501 513 0
-3 513 0
496 514 0
499 514 0
502 514 0
503 514 0
504 514 0
505 514 0
506 514 0
507 514 0
508 514 0
509 514 0
510 514 0
511 514 0
-515 0
-497 514 -516 0
497 -514 -516 0
516 -514 -497 0
497 514 516 0
-4 -516 0
499 -517 -518 0
517 -499 -518 0
-499 -517 518 0
499 517 518 0
-1 -518 0
517 -502 -519 0
502 -517 -519 0
519 -517 -502 0
519 517 502 0
-2 519 0
-499 520 0
-502 520 0
-503 520 0
-504 520 0
-505 520 0
-506 520 0
-507 520 0
-508 520 0
-509 520 0
-510 520 0
-511 520 0
521 0
517 -520 -522 0
-517 520 -522 0
-517 -520 522 0
517 520 522 0
-3 522 0
499 523 0
502 523 0
503 523 0
504 523 0
505 523 0
506 523 0
507 523 0
508 523 0
509 523 0
510 523 0
511 523 0
-524 0
-517 523 -525 0
517 -523 -525 0
525 -523 -517 0
517 523 525 0
-4 -525 0
502 -526 -527 0
526 -502 -527 0
-502 -526 527 0
502 526 527 0
-1 -527 0
526 -503 -528 0
503 -526 -528 0
528 -526 -503 0
528 526 503 0
-2 528 0
-502 529 0
-503 529 0
-504 529 0
-505 529 0
-506 529 0
-507 529 0
-508 529 0
-509 529 0
-510 529 0
-511 529 0
530 0
526 -529 -531 0
-526 529 -531 0
-526 -529 531 0
526 529 531 0
-3 531 0
502 532 0
503 532 0
504 532 0
505 532 0
506 532 0
507 532 0
508 532 0
509 532 0
510 532 0
511 532 0
-533 0
-526 532 -534 0
526 -532 -534 0
534 -532 -526 0
526 532 534 0
-4 -534 0
503 -535 -536 0
535 -503 -536 0
-503 -535 536 0
503 535 536 0
-1 -536 0
535 -504 -537 0
504 -535 -537 0
537 -535 -504 0
537 535 504 0
-2 537 0
-503 538 0
-504 538 0
-505 538 0
-506 538 0
-507 538 0
-508 538 0
-509 538 0
-510 538 0
-511 538 0
539 0
535 -538 -540 0
-535 538 -540 0
-535 -538 540 0
535 538 540 0
-3 540 0
503 541 0
504 541 0
505 541 0
506 541 0
507 541 0
508 541 0
509 541 0
510 541 0
511 541 0
-542 0
-535 541 -543 0
535 -541 -543 0
543 -541 -535 0
535 541 543 0
-4 -543 0
504 -544 -545 0
544 -504 -545 0
-504 -544 545 0
504 544 545 0
-1 -545 0
544 -505 -546 0
505 -544 -546 0
546 -544 -505 0
546 544 505 0
-2 546 0
-504 547 0
-505 547 0
-506 547 0
-507 547 0
-508 547 0
-509 547 0
-510 547 0
-511 547 0
548 0
544 -547 -549 0
-544 547 -549 0
-544 -547 549 0
544 547 549 0
-3 549 0
504 550 0
505 550 0
506 550 0
507 550 0
508 550 0
509 550 0
510 550 0
511 550 0
-551 0
-544 550 -552 0
544 -550 -552 0
552 -550 -544 0
544 550 552 0
-4 -552 0
505 -553 -554 0
553 -505 -554 0
-505 -553 554 0
505 553 554 0
-1 -554 0
553 -506 -555 0
506 -553 -555 0
555 -553 -506 0
555 553 506 0
-2 555 0
-505 556 0
-506 556 0
-507 556 0
-508 556 0
-509 556 0
-510 556 0
-511 556 0
557 0
553 -556 -558 0
-553 556 -558 0
-553 -556 558 0
553 556 558 0
-3 558 0
505 559 0
506 559 0
507 559 0
508 559 0
509 559 0
510 559 0
511 559 0
-560 0
-553 559 -561 0
553 -559 -561 0
561 -559 -553 0
553 559 561 0
-4 -561 0
506 -562 -563 0
562 -506 -563 0
-506 -562 563 0
506 562 563 0
-1 -563 0
562 -507 -564 0
507 -562 -564 0
564 -562 -507 0
564 562 507 0
-2 564 0
-506 565 0
-507 565 0
-508 565 0
-509 565 0
-510 565 0
-511 565 0
566 0
562 -565 -567 0
-562 565 -567 0
-562 -565 567 0
562 565 567 0
-3 567 0
506 568 0
507 568 0
508 568 0
509 568 0
510 568 0
511 568 0
-569 0
-562 568 -570 0
562 -568 -570 0
570 -568 -562 0
562 568 570 0
-4 -570 0
507 -571 -572 0
571 -507 -572 0
-507 -571 572 0
507 571 572 0
-1 -572 0
571 -508 -573 0
508 -571 -573 0
573 -571 -508 0
573 571 508 0
-2 573 0
571 -565 -574 0
565 -571 -574 0
-565 -571 574 0
571 565 574 0
-3 574 0
568 -571 -575 0
571 -568 -575 0
575 -568 -571 0
571 568 575 0
-4 -575 0
508 -576 -577 0
576 -508 -577 0
-508 -576 577 0
508 576 577 0
-1 -577 0
576 -509 -578 0
509 -576 -578 0
578 -576 -509 0
578 576 509 0
-2 578 0
576 -565 -579 0
565 -576 -579 0
-565 -576 579 0
576 565 579 0
-3 579 0
568 -576 -580 0
576 -568 -580 0
580 -568 -576 0
576 568 580 0
-4 -580 0
509 -581 -582 0
581 -509 -582 0
-509 -581 582 0
509 581 582 0
-1 -582 0
581 -510 -583 0
510 -581 -583 0
583 -581 -510 0
583 581 510 0
-2 583 0
581 -565 -584 0
565 -581 -584 0
-565 -581 584 0
581 565 584 0
-3 584 0
568 -581 -585 0
581 -568 -585 0
585 -568 -581 0
581 568 585 0
-4 -585 0
510 -586 -587 0
586 -510 -587 0
-510 -586 587 0
510 586 587 0
-1 -587 0
586 -511 -588 0
511 -586 -588 0
588 -586 -511 0
588 586 511 0
-2 588 0
586 -565 -589 0
565 -586 -589 0
-565 -586 589 0
586 565 589 0
-3 589 0
568 -586 -590 0
586 -568 -590 0
590 -568 -586 0
586 568 590 0
-4 -590 0
511 -591 -592 0
591 -511 -592 0
-511 -591 592 0
511 591 592 0
-1 -592 0
-506 591 -593 0
506 -591 -593 0
593 -591 -506 0
593 591 506 0
-2 593 0
-511 594 0
-562 594 0
511 562 -594 0
591 -594 -595 0
-591 594 -595 0
-591 -594 595 0
591 594 595 0
-3 595 0
511 596 0
562 596 0
-511 -562 -596 0
-591 596 -597 0
591 -596 -597 0
597 -596 -591 0
591 596 597 0
-4 -597 0
598 -599 -600 0
599 -598 -600 0
-598 -599 600 0
599 598 600 0
-1 -600 0
599 -601 -602 0
601 -599 -602 0
602 -599 -601 0
602 599 601 0
-2 602 0
-97 603 0
-98 603 0
-99 603 0
-100 603 0
-598 603 0
-601 603 0
-604 603 0
-605 603 0
606 0
599 -603 -607 0
-599 603 -607 0
-599 -603 607 0
599 603 607 0
-3 607 0
97 608 0
98 608 0
99 608 0
100 608 0
598 608 0
601 608 0
604 608 0
605 608 0
-609 0
-599 608 -610 0
599 -608 -610 0
610 -608 -599 0
599 608 610 0
-4 -610 0
601 -611 -612 0
611 -601 -612 0
-601 -611 612 0
601 611 612 0
-1 -612 0
611 -604 -613 0
604 -611 -613 0
613 -611 -604 0
613 611 604 0
-2 613 0
-97 614 0
-98 614 0
-99 614 0
-100 614 0
-601 614 0
-604 614 0
-605 614 0
615 0
611 -614 -616 0
-611 614 -616 0
-611 -614 616 0
611 614 616 0
-3 616 0
97 617 0
98 617 0
99 617 0
100 617 0
601 617 0
604 617 0
605 617 0
-618 0
-611 617 -619 0
611 -617 -619 0
619 -617 -611 0
611 617 619 0
-4 -619 0
604 -620 -621 0
620 -604 -621 0
-604 -620 621 0
604 620 621 0
-1 -621 0
620 -605 -622 0
605 -620 -622 0
622 -620 -605 0
622 620 605 0
-2 622 0
-97 623 0
-98 623 0
-99 623 0
-100 623 0
-604 623 0
-605 623 0
624 0
620 -623 -625 0
-620 623 -625 0
-620 -623 625 0
620 623 625 0
-3 625 0
97 626 0
98 626 0
99 626 0
100 626 0
604 626 0
605 626 0
-627 0
-620 626 -628 0
620 -626 -628 0
628 -626 -620 0
620 626 628 0
-4 -628 0
605 -629 -630 0
629 -605 -630 0
-605 -629 630 0
605 629 630 0
-1 -630 0
-98 629 -631 0
98 -629 -631 0
631 -629 -98 0
631 629 98 0
-2 631 0
-97 632 0
-98 632 0
-99 632 0
-100 632 0
-605 632 0
97 98 99 100 605 -632 0
629 -632 -633 0
-629 632 -633 0
-629 -632 633 0
629 632 633 0
-3 633 0
97 634 0
98 634 0
99 634 0
100 634 0
605 634 0
-635 0
-629 634 -636 0
629 -634 -636 0
636 -634 -629 0
629 634 636 0
-4 -636 0
6 0
-14 0
-88 0
-176 0
-268 0
-288 0
-333 0
-435 0
-497 0
-599 0
